PARAMETER_FILE = even/LKH_uncomplete_graph/x5/seg/par/random124.par
PROBLEM_FILE = even/LKH_uncomplete_graph/x5/seg/mat/random124.tsp
Successes/Runs = 0/10
Cost.min = 851, Cost.avg = 851.00, Cost.max = 851
Gap.min = 0.0000%, Gap.avg = 0.0000%, Gap.max = 0.0000%
Trials.min = 1000, Trials.avg = 1000.0, Trials.max = 1000
Time.min = 1.34 sec., Time.avg = 1.99 sec., Time.max = 2.93 sec.
Time.total = 19.97 sec.
请按任意键继续. . . 
